sat
(:added-eqs                       379
 :arith-eq-adapter                83
 :arith-bound-propagations-lp     12
 :arith-conflicts                 110
 :arith-diseq                     74
 :arith-fixed-eqs                 77
 :arith-grobner-calls             33
 :arith-grobner-conflicts         7
 :arith-horner-calls              9
 :arith-horner-cross-nested-forms 757
 :arith-lower                     175
 :arith-make-feasible             175
 :arith-max-columns               230
 :arith-max-rows                  92
 :arith-nla-add-bounds            17
 :arith-nla-lemmas                67
 :arith-nla-propagate-bounds      21
 :arith-nla-propagate-eq          223
 :arith-nra-calls                 2
 :arith-offset-eqs                49
 :arith-upper                     172
 :binary-propagations             198
 :conflicts                       32
 :decisions                       544
 :del-clause                      107
 :elim-unconstrained              10
 :final-checks                    64
 :max-memory                      83.32
 :memory                          55.54
 :minimized-lits                  1
 :mk-bool-var                     556
 :mk-clause                       210
 :mk-clause-binary                1167
 :nlsat-conflicts                 201
 :nlsat-decisions                 25
 :nlsat-propagations              3964
 :nlsat-stages                    1940
 :num-allocs                      257091682
 :num-checks                      1
 :propagations                    345
 :rlimit-count                    1552079
 :sat-backjumps                   501
 :sat-conflicts                   501
 :sat-decisions                   1640
 :sat-del-clause                  48284
 :sat-elim-bool-vars-res          8684
 :sat-elim-clauses                922
 :sat-elim-literals               1786
 :sat-minimized-lits              4162
 :sat-mk-clause-2ary              27592
 :sat-mk-clause-3ary              11387
 :sat-mk-clause-nary              74549
 :sat-mk-var                      18017
 :sat-probing-assigned            129
 :sat-propagations-2ary           480606
 :sat-propagations-nary           473877
 :sat-restarts                    71
 :sat-scc-elim-binary             113
 :sat-scc-elim-vars               58
 :sat-subs-resolution             792
 :sat-subs-resolution-dyn         181
 :sat-subsumed                    9258
 :sat-units                       151
 :time                            0.56
 :total-time                      0.57)
